56439
11, 45, 42, 18, 4, 30, 47, 26, 49, 55, 28, 6, 3, 43, 40, 51, 37, 7, 20, 50, 24, 35, 5, 13, 41, 32, 8, 38, 44, 19, 48, 17, 21, 29, 22, 10, 23, 53, 54, 34, 12, 9, 14, 2, 52, 16, 15, 46, 39, 36, 1, 27, 33, 31, 25
